submitit INFO (2023-04-30 19:21:47,027) - Starting with JobEnvironment(job_id=27536, hostname=cpunode25, local_rank=2(5), node=0(1), global_rank=2(5))
submitit INFO (2023-04-30 19:21:47,027) - Loading pickle: /h/30/pashootan/Matrix-Mult-CP/src/../logs/2x2x2_6_Apr30_19:21:44/27536_submitted.pkl
 ! --------------------------------------------------- CP Optimizer 22.1.1.0 --
 ! Satisfiability problem - 72 variables, 117 constraints
 ! TimeLimit            = 7200
 ! Workers              = 8
 ! LogPeriod            = 10000000
 ! RandomSeed           = 7782
 ! Initial process time : 0.00s (0.00s extraction + 0.00s propagation)
 !  . Log search space  : 107.1 (before), 107.1 (after)
 !  . Memory usage      : 495.1 kB (before), 495.1 kB (after)
 ! Using parallel search with 8 workers.
 ! ----------------------------------------------------------------------------
 !               Branches  Non-fixed    W       Branch decision
                   10000k          6    2   F     1 != U4_2
                   10000k          6    4        -1  = V1_3
                   10000k          6    7   F    -1  = V2_0
                   10000k          6    5   F     0  = W0_1
                   10000k          6    6         0 != W0_0
                   10000k          6    1   F    -1 != W0_1
                   10000k          6    8   F     0  = V2_3
                   10000k          7    3   F     0 != V0_0
                   20000k          6    2         0 != W4_1
                   20000k          6    4   F    -1 != V5_1
                   20000k          6    6   F     0  = V4_3
                   20000k          6    5   F    -1  = W3_1
                   20000k          7    3         0  = V2_1
                   20000k          6    7         0  = U3_1
                   20000k          6    1        -1 != V4_1
                   20000k          6    8            -
                   30000k          6    2   F     1  = U1_2
                   30000k          6    4        -1  = U2_1
                   30000k          7    6         1  = V0_2
                   30000k          6    5         1  = V5_1
 ! Time = 335.48s, Average fail depth = 18, Memory usage = 146.8 MB
 !               Branches  Non-fixed    W       Branch decision
                   30000k          6    1   F     1  = V3_1
                   30000k          8    7   F     0  = U1_2
                   30000k          8    3   F    -1 != U1_3
                   30000k          6    8        -1  = V1_1
                   40000k          7    2         0  = V3_3
                   40000k          7    4   F    -1  = V5_1
                   40000k          6    6   F    -1 != W1_1
                   40000k          7    5   F    -1  = W4_2
                   40000k          9    1   F    -1  = V5_3
                   40000k          9    3   F    -1  = W1_1
                   40000k         10    7         0 != W3_1
                   40000k          6    8            -
 ! ----------------------------------------------------------------------------
 ! Search completed, model has no solution.
 ! ----------------------------------------------------------------------------
 ! Number of branches     : 327112521
 ! Number of fails        : 161395289
 ! Total memory usage     : 204.8 MB (204.8 MB CP Optimizer + 0.0 MB Concert)
 ! Time spent in solve    : 461.38s (461.38s engine + 0.00s extraction)
 ! Search speed (br. / s) : 709002.6
 ! ----------------------------------------------------------------------------
Infeasible
Saving stats to: /h/30/pashootan/Matrix-Mult-CP/logs/2x2x2_6_Apr30_19:21:44/27536_2_stats.csv
submitit INFO (2023-04-30 19:29:28,933) - Job completed successfully
